681934
681934
681934
681934
681934
681934
681934
681934
681934
681934
677775
671600
671600
671600
671600
671600
654969
654969
654911
648722
648722
648722
646162
628103
628103
628103
628103
628103
628103
628103
625387
625387
625387
625387
623255
623255
616402
616402
616402
614394
614387
613727
613727
605188
605188
605188
605188
605188
596435
596435
596435
587925
587031
587031
582049
582049
582049
582040
582040
582040
582040
582040
582040
580023
580023
580023
572821
572821
572821
572821
572821
572821
566152
566152
566152
566152
566152
566152
565079
565079
565079
560644
559730
559730
559730
559730
551235
551235
551235
551235
551235
551235
551235
547511
540100
540100
540100
530090
530090
530090
